NAME : compression
TYPE : TSP
DIMENSION : 50
EDGE_WEIGHT_TYPE : EUC_2D
NODE_COORD_SECTION
1 702656 995194
2 240055 175160
3 131837 664172
4 459310 463413
5 749416 273493
6 913480 233141
7 358239 529580
8 899560 938541
9 279712 175273
10 904853 171735
11 882804 186170
12 378529 516297
13 594793 321197
14 245996 157422
15 244681 161347
16 379422 493323
17 109860 658088
18 905741 853192
19 657053 752266
20 248874 175869
21 295342 239138
22 488519 444291
23 788360 268344
24 597825 913250
25 320968 553980
26 499351 493466
27 802518 236638
28 857378 739858
29 279565 187220
30 773733 257574
31 976057 224962
32 605772 367531
33 85201 637562
34 796878 850991
35 114369 686874
36 227891 545538
37 974248 218797
38 560861 180758
39 392689 444520
40 652899 423858
41 538055 542234
42 788711 233938
43 798458 227703
44 71438 681821
45 704000 303225
46 899428 764419
47 379708 515525
48 240493 173854
49 487864 189774
50 147504 451521
EOF
